db/data/1668713450325721598375295567195673374.z3.out
sat
-------------------
538.617229804
